unsat
(error "line 1916 column 17: model is not available")
(error "line 1917 column 17: model is not available")
(error "line 1918 column 18: model is not available")
(error "line 1919 column 18: model is not available")
(error "line 1920 column 18: model is not available")
(error "line 1921 column 18: model is not available")
(error "line 1922 column 18: model is not available")
(error "line 1923 column 18: model is not available")
(error "line 1924 column 18: model is not available")
(error "line 1925 column 18: model is not available")
(error "line 1926 column 18: model is not available")
(error "line 1927 column 18: model is not available")
(error "line 1928 column 17: model is not available")
(error "line 1929 column 18: model is not available")
(error "line 1930 column 18: model is not available")
(error "line 1931 column 18: model is not available")
(error "line 1932 column 18: model is not available")
(error "line 1933 column 18: model is not available")
(error "line 1934 column 18: model is not available")
(error "line 1935 column 18: model is not available")
(error "line 1936 column 18: model is not available")
(error "line 1937 column 18: model is not available")
(error "line 1938 column 18: model is not available")
(error "line 1939 column 17: model is not available")
(error "line 1940 column 18: model is not available")
(error "line 1941 column 18: model is not available")
(error "line 1942 column 18: model is not available")
(error "line 1943 column 18: model is not available")
(error "line 1944 column 18: model is not available")
(error "line 1945 column 18: model is not available")
(error "line 1946 column 18: model is not available")
(error "line 1947 column 18: model is not available")
(error "line 1948 column 18: model is not available")
(error "line 1949 column 18: model is not available")
(error "line 1950 column 17: model is not available")
(error "line 1951 column 18: model is not available")
(error "line 1952 column 18: model is not available")
(error "line 1953 column 18: model is not available")
(error "line 1954 column 18: model is not available")
(error "line 1955 column 18: model is not available")
(error "line 1956 column 18: model is not available")
(error "line 1957 column 18: model is not available")
(error "line 1958 column 18: model is not available")
(error "line 1959 column 18: model is not available")
(error "line 1960 column 18: model is not available")
(error "line 1961 column 17: model is not available")
(error "line 1962 column 18: model is not available")
(error "line 1963 column 18: model is not available")
(error "line 1964 column 18: model is not available")
(error "line 1965 column 18: model is not available")
(error "line 1966 column 18: model is not available")
(error "line 1967 column 18: model is not available")
(error "line 1968 column 18: model is not available")
(error "line 1969 column 18: model is not available")
(error "line 1970 column 18: model is not available")
(error "line 1971 column 18: model is not available")
(error "line 1972 column 17: model is not available")
(error "line 1973 column 18: model is not available")
(error "line 1974 column 18: model is not available")
(error "line 1975 column 18: model is not available")
(error "line 1976 column 18: model is not available")
(error "line 1977 column 18: model is not available")
(error "line 1978 column 18: model is not available")
(error "line 1979 column 18: model is not available")
(error "line 1980 column 18: model is not available")
(error "line 1981 column 18: model is not available")
(error "line 1982 column 18: model is not available")
(error "line 1983 column 17: model is not available")
(error "line 1984 column 18: model is not available")
(error "line 1985 column 18: model is not available")
(error "line 1986 column 18: model is not available")
(error "line 1987 column 18: model is not available")
(error "line 1988 column 18: model is not available")
(error "line 1989 column 18: model is not available")
(error "line 1990 column 18: model is not available")
(error "line 1991 column 18: model is not available")
(error "line 1992 column 18: model is not available")
(error "line 1993 column 18: model is not available")
(error "line 1994 column 17: model is not available")
(error "line 1995 column 18: model is not available")
(error "line 1996 column 18: model is not available")
(error "line 1997 column 18: model is not available")
(error "line 1998 column 18: model is not available")
(error "line 1999 column 18: model is not available")
(error "line 2000 column 18: model is not available")
(error "line 2001 column 18: model is not available")
(error "line 2002 column 18: model is not available")
(error "line 2003 column 18: model is not available")
(error "line 2004 column 17: model is not available")
(error "line 2005 column 38: model is not available")
(error "line 2006 column 45: model is not available")
(error "line 2007 column 38: model is not available")
(error "line 2008 column 45: model is not available")
(error "line 2009 column 46: model is not available")
(error "line 2010 column 53: model is not available")
(error "line 2011 column 40: model is not available")
(error "line 2012 column 47: model is not available")
(error "line 2013 column 38: model is not available")
(error "line 2014 column 45: model is not available")
(error "line 2015 column 38: model is not available")
(error "line 2016 column 45: model is not available")
(error "line 2017 column 41: model is not available")
(error "line 2018 column 48: model is not available")
(error "line 2019 column 41: model is not available")
(error "line 2020 column 48: model is not available")
(error "line 2021 column 41: model is not available")
(error "line 2022 column 48: model is not available")
(error "line 2023 column 41: model is not available")
(error "line 2024 column 41: model is not available")
(error "line 2025 column 48: model is not available")
(error "line 2026 column 37: model is not available")
(error "line 2027 column 44: model is not available")
(error "line 2028 column 42: model is not available")
(error "line 2029 column 42: model is not available")
(error "line 2030 column 42: model is not available")
(error "line 2031 column 38: model is not available")
(error "line 2032 column 38: model is not available")
(error "line 2033 column 38: model is not available")
(error "line 2034 column 38: model is not available")
(error "line 2035 column 38: model is not available")
(error "line 2036 column 41: model is not available")
(error "line 2037 column 48: model is not available")
(error "line 2038 column 41: model is not available")
(error "line 2039 column 48: model is not available")
(error "line 2040 column 41: model is not available")
(error "line 2041 column 48: model is not available")
(error "line 2042 column 41: model is not available")
(error "line 2043 column 48: model is not available")
(error "line 2044 column 41: model is not available")
(error "line 2045 column 48: model is not available")
(error "line 2046 column 47: model is not available")
(error "line 2047 column 47: model is not available")
(error "line 2048 column 47: model is not available")
(error "line 2049 column 47: model is not available")
(error "line 2050 column 18: model is not available")
(error "line 2051 column 25: model is not available")
(error "line 2052 column 19: model is not available")
(error "line 2053 column 26: model is not available")
(error "line 2054 column 19: model is not available")
(error "line 2055 column 26: model is not available")
(error "line 2056 column 18: model is not available")
(error "line 2057 column 25: model is not available")
(error "line 2058 column 18: model is not available")
(error "line 2059 column 25: model is not available")
(error "line 2060 column 18: model is not available")
(error "line 2061 column 25: model is not available")
(error "line 2062 column 18: model is not available")
(error "line 2063 column 25: model is not available")
(error "line 2064 column 18: model is not available")
(error "line 2065 column 25: model is not available")
(error "line 2066 column 18: model is not available")
(error "line 2067 column 25: model is not available")
(error "line 2068 column 18: model is not available")
(error "line 2069 column 25: model is not available")
(error "line 2070 column 18: model is not available")
(error "line 2071 column 25: model is not available")
(error "line 2072 column 64: model is not available")
(error "line 2073 column 64: model is not available")
(error "line 2074 column 64: model is not available")
(error "line 2075 column 64: model is not available")
(error "line 2076 column 63: model is not available")
(error "line 2077 column 63: model is not available")
(error "line 2078 column 63: model is not available")
(error "line 2079 column 63: model is not available")
(error "line 2080 column 63: model is not available")
(error "line 2081 column 63: model is not available")
(error "line 2082 column 63: model is not available")
(error "line 2083 column 63: model is not available")
(error "line 2084 column 63: model is not available")
(error "line 2085 column 63: model is not available")
(error "line 2086 column 38: model is not available")
(error "line 2087 column 39: model is not available")
(error "line 2088 column 38: model is not available")
(error "line 2089 column 38: model is not available")
(error "line 2090 column 38: model is not available")
(error "line 2091 column 38: model is not available")
(error "line 2092 column 38: model is not available")
(error "line 2093 column 38: model is not available")
(error "line 2094 column 38: model is not available")
(error "line 2095 column 38: model is not available")
(error "line 2096 column 36: model is not available")
(error "line 2097 column 36: model is not available")
(error "line 2098 column 29: model is not available")
(error "line 2099 column 31: model is not available")
(error "line 2100 column 38: model is not available")
(error "line 2101 column 31: model is not available")
(error "line 2102 column 38: model is not available")
(error "line 2103 column 31: model is not available")
(error "line 2104 column 38: model is not available")
(error "line 2105 column 52: model is not available")
(error "line 2106 column 51: model is not available")
(error "line 2107 column 52: model is not available")
(error "line 2108 column 52: model is not available")
(error "line 2109 column 53: model is not available")
(error "line 2110 column 53: model is not available")
(error "line 2111 column 51: model is not available")
(error "line 2112 column 52: model is not available")
(error "line 2113 column 51: model is not available")
(error "line 2114 column 50: model is not available")
(error "line 2115 column 52: model is not available")
(error "line 2116 column 52: model is not available")
(error "line 2117 column 52: model is not available")
(error "line 2118 column 52: model is not available")
(error "line 2119 column 51: model is not available")
(error "line 2120 column 51: model is not available")
(error "line 2121 column 51: model is not available")
(error "line 2122 column 51: model is not available")
(error "line 2123 column 51: model is not available")
(error "line 2124 column 51: model is not available")
(error "line 2125 column 51: model is not available")
(error "line 2126 column 51: model is not available")
(error "line 2127 column 51: model is not available")
(error "line 2128 column 51: model is not available")
(error "line 2129 column 51: model is not available")
(error "line 2130 column 52: model is not available")
(error "line 2131 column 52: model is not available")
(error "line 2132 column 53: model is not available")
(error "line 2133 column 53: model is not available")
(error "line 2134 column 51: model is not available")
(error "line 2135 column 52: model is not available")
(error "line 2136 column 51: model is not available")
(error "line 2137 column 50: model is not available")
(error "line 2138 column 52: model is not available")
(error "line 2139 column 52: model is not available")
(error "line 2140 column 52: model is not available")
(error "line 2141 column 52: model is not available")
(error "line 2142 column 51: model is not available")
(error "line 2143 column 51: model is not available")
(error "line 2144 column 51: model is not available")
(error "line 2145 column 51: model is not available")
(error "line 2146 column 51: model is not available")
(error "line 2147 column 51: model is not available")
(error "line 2148 column 51: model is not available")
(error "line 2149 column 51: model is not available")
(error "line 2150 column 51: model is not available")
(error "line 2151 column 51: model is not available")
(error "line 2152 column 51: model is not available")
(error "line 2153 column 56: model is not available")
(error "line 2154 column 56: model is not available")
(error "line 2155 column 57: model is not available")
(error "line 2156 column 57: model is not available")
(error "line 2157 column 56: model is not available")
(error "line 2158 column 56: model is not available")
(error "line 2159 column 55: model is not available")
(error "line 2160 column 55: model is not available")
(error "line 2161 column 55: model is not available")
(error "line 2162 column 55: model is not available")
(error "line 2163 column 57: model is not available")
(error "line 2164 column 57: model is not available")
(error "line 2165 column 55: model is not available")
(error "line 2166 column 55: model is not available")
(error "line 2167 column 55: model is not available")
(error "line 2168 column 55: model is not available")
(error "line 2169 column 55: model is not available")
(error "line 2170 column 28: model is not available")
(error "line 2171 column 35: model is not available")
(error "line 2172 column 28: model is not available")
(error "line 2173 column 35: model is not available")
(error "line 2174 column 28: model is not available")
(error "line 2175 column 28: model is not available")
(error "line 2176 column 28: model is not available")
(error "line 2177 column 35: model is not available")
(error "line 2178 column 28: model is not available")
(error "line 2179 column 35: model is not available")
(error "line 2180 column 28: model is not available")
(error "line 2181 column 28: model is not available")
(error "line 2182 column 28: model is not available")
(error "line 2183 column 35: model is not available")
(error "line 2184 column 28: model is not available")
(error "line 2185 column 35: model is not available")
(error "line 2186 column 29: model is not available")
(error "line 2187 column 36: model is not available")
(error "line 2188 column 29: model is not available")
(error "line 2189 column 36: model is not available")
(error "line 2190 column 29: model is not available")
(error "line 2191 column 36: model is not available")
(error "line 2192 column 29: model is not available")
(error "line 2193 column 36: model is not available")
(error "line 2194 column 28: model is not available")
(error "line 2195 column 35: model is not available")
(error "line 2196 column 28: model is not available")
(error "line 2197 column 28: model is not available")
(error "line 2198 column 35: model is not available")
(error "line 2199 column 28: model is not available")
(error "line 2200 column 35: model is not available")
(error "line 2201 column 28: model is not available")
(error "line 2202 column 35: model is not available")
(error "line 2203 column 28: model is not available")
(error "line 2204 column 35: model is not available")
(error "line 2205 column 28: model is not available")
(error "line 2206 column 35: model is not available")
(error "line 2207 column 28: model is not available")
(error "line 2208 column 46: model is not available")
(error "line 2209 column 46: model is not available")
(error "line 2210 column 46: model is not available")
(error "line 2211 column 46: model is not available")
(error "line 2212 column 54: model is not available")
(error "line 2213 column 54: model is not available")
(error "line 2214 column 54: model is not available")
(error "line 2215 column 54: model is not available")
(error "line 2216 column 54: model is not available")
(error "line 2217 column 54: model is not available")
(error "line 2218 column 40: model is not available")
(error "line 2219 column 40: model is not available")
(error "line 2220 column 40: model is not available")
(error "line 2221 column 40: model is not available")
(error "line 2222 column 41: model is not available")
(error "line 2223 column 41: model is not available")
(error "line 2224 column 41: model is not available")
(error "line 2225 column 41: model is not available")
(error "line 2226 column 50: model is not available")
(error "line 2227 column 50: model is not available")
(error "line 2228 column 50: model is not available")
(error "line 2229 column 50: model is not available")
(error "line 2230 column 43: model is not available")
(error "line 2231 column 43: model is not available")
(error "line 2232 column 43: model is not available")
(error "line 2233 column 43: model is not available")
(error "line 2234 column 30: model is not available")
(error "line 2235 column 30: model is not available")
(error "line 2236 column 36: model is not available")
(error "line 2237 column 36: model is not available")
(error "line 2238 column 36: model is not available")
(error "line 2239 column 36: model is not available")
(error "line 2240 column 30: model is not available")
(error "line 2241 column 30: model is not available")
(error "line 2243 column 10: model is not available")
(:added-eqs                      859
 :arith-bound-propagations-cheap 113
 :arith-bound-propagations-lp    215
 :arith-conflicts                3
 :arith-lower                    150
 :arith-make-feasible            66
 :arith-max-columns              163
 :arith-max-rows                 124
 :arith-propagations             113
 :arith-upper                    135
 :array-ax1                      2
 :binary-propagations            18019
 :bv-bit2core                    4626
 :bv-diseqs                      8
 :bv-dynamic-diseqs              92
 :bv->core-eq                    72
 :conflicts                      61
 :decisions                      447
 :del-clause                     3863
 :eliminated-applications        16
 :eliminated-vars                15
 :max-memory                     12.21
 :memory                         4.45
 :minimized-lits                 349
 :mk-bool-var                    10688
 :mk-clause                      24172
 :num-allocs                     12305283
 :num-checks                     1
 :propagations                   62610
 :rlimit-count                   158028
 :time                           0.05
 :total-time                     0.06)

real	0m0.065s
user	0m0.061s
sys	0m0.004s
State: RE Run_time: 0.06690669059753418